191079
10,16,57,76,8,19,75,66,61,69,44,25,35,13,79,63,9,28,72,0,45,53,70,55,50,48,80,56,33,42,71,14,5,3,38,52,21,43,49,64,30,17,12,36,23,4,67,27,58,18,31,65,47,20,81,74,15,32,73,39,6,26,78,37,46,59,1,82,22,11,2,24,41,54,68,77,40,62,51,7,34,60,29
